p cnf 576 1606
-42 20 0
-42 24 0
42 -20 -24 0
-43 20 0
-43 -42 0
43 -20 42 0
-44 24 0
-44 -42 0
44 -24 42 0
-45 -43 0
-45 -44 0
45 43 44 0
-46 28 0
-46 32 0
46 -28 -32 0
-47 28 0
-47 -46 0
47 -28 46 0
-48 32 0
-48 -46 0
48 -32 46 0
-49 -47 0
-49 -48 0
49 47 48 0
-50 -45 0
-50 -49 0
50 45 49 0
-51 -45 0
-51 -50 0
51 45 50 0
-52 -49 0
-52 -50 0
52 49 50 0
-53 -51 0
-53 -52 0
53 51 52 0
-54 40 0
-54 41 0
54 -40 -41 0
-55 5 0
-55 6 0
55 -5 -6 0
-56 5 0
-56 -55 0
56 -5 55 0
-57 6 0
-57 -55 0
57 -6 55 0
-58 -56 0
-58 -57 0
58 56 57 0
-59 7 0
-59 8 0
59 -7 -8 0
-60 7 0
-60 -59 0
60 -7 59 0
-61 8 0
-61 -59 0
61 -8 59 0
-62 -60 0
-62 -61 0
62 60 61 0
-63 -58 0
-63 -62 0
63 58 62 0
-64 -58 0
-64 -63 0
64 58 63 0
-65 -62 0
-65 -63 0
65 62 63 0
-66 -64 0
-66 -65 0
66 64 65 0
-67 13 0
-67 14 0
67 -13 -14 0
-68 13 0
-68 -67 0
68 -13 67 0
-69 14 0
-69 -67 0
69 -14 67 0
-70 -68 0
-70 -69 0
70 68 69 0
-71 15 0
-71 16 0
71 -15 -16 0
-72 15 0
-72 -71 0
72 -15 71 0
-73 16 0
-73 -71 0
73 -16 71 0
-74 -72 0
-74 -73 0
74 72 73 0
-75 -70 0
-75 -74 0
75 70 74 0
-76 -70 0
-76 -75 0
76 70 75 0
-77 -74 0
-77 -75 0
77 74 75 0
-78 -76 0
-78 -77 0
78 76 77 0
-79 -66 0
-79 -78 0
79 66 78 0
-80 -66 0
-80 -79 0
80 66 79 0
-81 -78 0
-81 -79 0
81 78 79 0
-82 -80 0
-82 -81 0
82 80 81 0
-83 54 0
-83 -82 0
83 -54 82 0
-84 54 0
-84 -83 0
84 -54 83 0
-85 -82 0
-85 -83 0
85 82 83 0
-86 -84 0
-86 -85 0
86 84 85 0
-87 -53 0
-87 -86 0
87 53 86 0
-88 -53 0
-88 -87 0
88 53 87 0
-89 -86 0
-89 -87 0
89 86 87 0
-90 -88 0
-90 -89 0
90 88 89 0
-91 19 0
-91 23 0
91 -19 -23 0
-92 19 0
-92 -91 0
92 -19 91 0
-93 23 0
-93 -91 0
93 -23 91 0
-94 -92 0
-94 -93 0
94 92 93 0
-95 27 0
-95 31 0
95 -27 -31 0
-96 27 0
-96 -95 0
96 -27 95 0
-97 31 0
-97 -95 0
97 -31 95 0
-98 -96 0
-98 -97 0
98 96 97 0
-99 -94 0
-99 -98 0
99 94 98 0
-100 -94 0
-100 -99 0
100 94 99 0
-101 -98 0
-101 -99 0
101 98 99 0
-102 -100 0
-102 -101 0
102 100 101 0
-103 39 0
-103 41 0
103 -39 -41 0
-104 1 0
-104 2 0
104 -1 -2 0
-105 1 0
-105 -104 0
105 -1 104 0
-106 2 0
-106 -104 0
106 -2 104 0
-107 -105 0
-107 -106 0
107 105 106 0
-108 3 0
-108 4 0
108 -3 -4 0
-109 3 0
-109 -108 0
109 -3 108 0
-110 4 0
-110 -108 0
110 -4 108 0
-111 -109 0
-111 -110 0
111 109 110 0
-112 -107 0
-112 -111 0
112 107 111 0
-113 -107 0
-113 -112 0
113 107 112 0
-114 -111 0
-114 -112 0
114 111 112 0
-115 -113 0
-115 -114 0
115 113 114 0
-116 9 0
-116 10 0
116 -9 -10 0
-117 9 0
-117 -116 0
117 -9 116 0
-118 10 0
-118 -116 0
118 -10 116 0
-119 -117 0
-119 -118 0
119 117 118 0
-120 11 0
-120 12 0
120 -11 -12 0
-121 11 0
-121 -120 0
121 -11 120 0
-122 12 0
-122 -120 0
122 -12 120 0
-123 -121 0
-123 -122 0
123 121 122 0
-124 -119 0
-124 -123 0
124 119 123 0
-125 -119 0
-125 -124 0
125 119 124 0
-126 -123 0
-126 -124 0
126 123 124 0
-127 -125 0
-127 -126 0
127 125 126 0
-128 -115 0
-128 -127 0
128 115 127 0
-129 -115 0
-129 -128 0
129 115 128 0
-130 -127 0
-130 -128 0
130 127 128 0
-131 -129 0
-131 -130 0
131 129 130 0
-132 103 0
-132 -131 0
132 -103 131 0
-133 103 0
-133 -132 0
133 -103 132 0
-134 -131 0
-134 -132 0
134 131 132 0
-135 -133 0
-135 -134 0
135 133 134 0
-136 -102 0
-136 -135 0
136 102 135 0
-137 -102 0
-137 -136 0
137 102 136 0
-138 -135 0
-138 -136 0
138 135 136 0
-139 -137 0
-139 -138 0
139 137 138 0
-140 17 0
-140 21 0
140 -17 -21 0
-141 17 0
-141 -140 0
141 -17 140 0
-142 21 0
-142 -140 0
142 -21 140 0
-143 -141 0
-143 -142 0
143 141 142 0
-144 25 0
-144 29 0
144 -25 -29 0
-145 25 0
-145 -144 0
145 -25 144 0
-146 29 0
-146 -144 0
146 -29 144 0
-147 -145 0
-147 -146 0
147 145 146 0
-148 -143 0
-148 -147 0
148 143 147 0
-149 -143 0
-149 -148 0
149 143 148 0
-150 -147 0
-150 -148 0
150 147 148 0
-151 -149 0
-151 -150 0
151 149 150 0
-152 37 0
-152 41 0
152 -37 -41 0
-153 -66 0
-153 -115 0
153 66 115 0
-154 -115 0
-154 -153 0
154 115 153 0
-155 -66 0
-155 -153 0
155 66 153 0
-156 -154 0
-156 -155 0
156 154 155 0
-157 152 0
-157 -156 0
157 -152 156 0
-158 152 0
-158 -157 0
158 -152 157 0
-159 -156 0
-159 -157 0
159 156 157 0
-160 -158 0
-160 -159 0
160 158 159 0
-161 -151 0
-161 -160 0
161 151 160 0
-162 -151 0
-162 -161 0
162 151 161 0
-163 -160 0
-163 -161 0
163 160 161 0
-164 -162 0
-164 -163 0
164 162 163 0
-165 18 0
-165 22 0
165 -18 -22 0
-166 18 0
-166 -165 0
166 -18 165 0
-167 22 0
-167 -165 0
167 -22 165 0
-168 -166 0
-168 -167 0
168 166 167 0
-169 26 0
-169 30 0
169 -26 -30 0
-170 26 0
-170 -169 0
170 -26 169 0
-171 30 0
-171 -169 0
171 -30 169 0
-172 -170 0
-172 -171 0
172 170 171 0
-173 -168 0
-173 -172 0
173 168 172 0
-174 -168 0
-174 -173 0
174 168 173 0
-175 -172 0
-175 -173 0
175 172 173 0
-176 -174 0
-176 -175 0
176 174 175 0
-177 38 0
-177 41 0
177 -38 -41 0
-178 -78 0
-178 -127 0
178 78 127 0
-179 -127 0
-179 -178 0
179 127 178 0
-180 -78 0
-180 -178 0
180 78 178 0
-181 -179 0
-181 -180 0
181 179 180 0
-182 177 0
-182 -181 0
182 -177 181 0
-183 177 0
-183 -182 0
183 -177 182 0
-184 -181 0
-184 -182 0
184 181 182 0
-185 -183 0
-185 -184 0
185 183 184 0
-186 -176 0
-186 -185 0
186 176 185 0
-187 -176 0
-187 -186 0
187 176 186 0
-188 -185 0
-188 -186 0
188 185 186 0
-189 -187 0
-189 -188 0
189 187 188 0
-190 -164 0
-190 189 0
190 164 -189 0
-191 139 0
-191 190 0
191 -139 -190 0
-192 90 0
-192 191 0
192 -90 -191 0
-193 164 0
-193 -189 0
193 -164 189 0
-194 139 0
-194 193 0
194 -139 -193 0
-195 90 0
-195 194 0
195 -90 -194 0
-196 164 0
-196 189 0
196 -164 -189 0
-197 139 0
-197 196 0
197 -139 -196 0
-198 -90 0
-198 197 0
198 90 -197 0
-199 -139 0
-199 196 0
199 139 -196 0
-200 90 0
-200 199 0
200 -90 -199 0
-201 -198 0
-201 -200 0
201 198 200 0
-202 -195 0
-202 201 0
202 195 -201 0
-203 -192 0
-203 202 0
203 192 -202 0
-204 4 0
-204 8 0
204 -4 -8 0
-205 4 0
-205 -204 0
205 -4 204 0
-206 8 0
-206 -204 0
206 -8 204 0
-207 -205 0
-207 -206 0
207 205 206 0
-208 12 0
-208 16 0
208 -12 -16 0
-209 12 0
-209 -208 0
209 -12 208 0
-210 16 0
-210 -208 0
210 -16 208 0
-211 -209 0
-211 -210 0
211 209 210 0
-212 -207 0
-212 -211 0
212 207 211 0
-213 -207 0
-213 -212 0
213 207 212 0
-214 -211 0
-214 -212 0
214 211 212 0
-215 -213 0
-215 -214 0
215 213 214 0
-216 36 0
-216 41 0
216 -36 -41 0
-217 21 0
-217 22 0
217 -21 -22 0
-218 21 0
-218 -217 0
218 -21 217 0
-219 22 0
-219 -217 0
219 -22 217 0
-220 -218 0
-220 -219 0
220 218 219 0
-221 23 0
-221 24 0
221 -23 -24 0
-222 23 0
-222 -221 0
222 -23 221 0
-223 24 0
-223 -221 0
223 -24 221 0
-224 -222 0
-224 -223 0
224 222 223 0
-225 -220 0
-225 -224 0
225 220 224 0
-226 -220 0
-226 -225 0
226 220 225 0
-227 -224 0
-227 -225 0
227 224 225 0
-228 -226 0
-228 -227 0
228 226 227 0
-229 29 0
-229 30 0
229 -29 -30 0
-230 29 0
-230 -229 0
230 -29 229 0
-231 30 0
-231 -229 0
231 -30 229 0
-232 -230 0
-232 -231 0
232 230 231 0
-233 31 0
-233 32 0
233 -31 -32 0
-234 31 0
-234 -233 0
234 -31 233 0
-235 32 0
-235 -233 0
235 -32 233 0
-236 -234 0
-236 -235 0
236 234 235 0
-237 -232 0
-237 -236 0
237 232 236 0
-238 -232 0
-238 -237 0
238 232 237 0
-239 -236 0
-239 -237 0
239 236 237 0
-240 -238 0
-240 -239 0
240 238 239 0
-241 -228 0
-241 -240 0
241 228 240 0
-242 -228 0
-242 -241 0
242 228 241 0
-243 -240 0
-243 -241 0
243 240 241 0
-244 -242 0
-244 -243 0
244 242 243 0
-245 216 0
-245 -244 0
245 -216 244 0
-246 216 0
-246 -245 0
246 -216 245 0
-247 -244 0
-247 -245 0
247 244 245 0
-248 -246 0
-248 -247 0
248 246 247 0
-249 -215 0
-249 -248 0
249 215 248 0
-250 -215 0
-250 -249 0
250 215 249 0
-251 -248 0
-251 -249 0
251 248 249 0
-252 -250 0
-252 -251 0
252 250 251 0
-253 3 0
-253 7 0
253 -3 -7 0
-254 3 0
-254 -253 0
254 -3 253 0
-255 7 0
-255 -253 0
255 -7 253 0
-256 -254 0
-256 -255 0
256 254 255 0
-257 11 0
-257 15 0
257 -11 -15 0
-258 11 0
-258 -257 0
258 -11 257 0
-259 15 0
-259 -257 0
259 -15 257 0
-260 -258 0
-260 -259 0
260 258 259 0
-261 -256 0
-261 -260 0
261 256 260 0
-262 -256 0
-262 -261 0
262 256 261 0
-263 -260 0
-263 -261 0
263 260 261 0
-264 -262 0
-264 -263 0
264 262 263 0
-265 35 0
-265 41 0
265 -35 -41 0
-266 17 0
-266 18 0
266 -17 -18 0
-267 17 0
-267 -266 0
267 -17 266 0
-268 18 0
-268 -266 0
268 -18 266 0
-269 -267 0
-269 -268 0
269 267 268 0
-270 19 0
-270 20 0
270 -19 -20 0
-271 19 0
-271 -270 0
271 -19 270 0
-272 20 0
-272 -270 0
272 -20 270 0
-273 -271 0
-273 -272 0
273 271 272 0
-274 -269 0
-274 -273 0
274 269 273 0
-275 -269 0
-275 -274 0
275 269 274 0
-276 -273 0
-276 -274 0
276 273 274 0
-277 -275 0
-277 -276 0
277 275 276 0
-278 25 0
-278 26 0
278 -25 -26 0
-279 25 0
-279 -278 0
279 -25 278 0
-280 26 0
-280 -278 0
280 -26 278 0
-281 -279 0
-281 -280 0
281 279 280 0
-282 27 0
-282 28 0
282 -27 -28 0
-283 27 0
-283 -282 0
283 -27 282 0
-284 28 0
-284 -282 0
284 -28 282 0
-285 -283 0
-285 -284 0
285 283 284 0
-286 -281 0
-286 -285 0
286 281 285 0
-287 -281 0
-287 -286 0
287 281 286 0
-288 -285 0
-288 -286 0
288 285 286 0
-289 -287 0
-289 -288 0
289 287 288 0
-290 -277 0
-290 -289 0
290 277 289 0
-291 -277 0
-291 -290 0
291 277 290 0
-292 -289 0
-292 -290 0
292 289 290 0
-293 -291 0
-293 -292 0
293 291 292 0
-294 265 0
-294 -293 0
294 -265 293 0
-295 265 0
-295 -294 0
295 -265 294 0
-296 -293 0
-296 -294 0
296 293 294 0
-297 -295 0
-297 -296 0
297 295 296 0
-298 -264 0
-298 -297 0
298 264 297 0
-299 -264 0
-299 -298 0
299 264 298 0
-300 -297 0
-300 -298 0
300 297 298 0
-301 -299 0
-301 -300 0
301 299 300 0
-302 1 0
-302 5 0
302 -1 -5 0
-303 1 0
-303 -302 0
303 -1 302 0
-304 5 0
-304 -302 0
304 -5 302 0
-305 -303 0
-305 -304 0
305 303 304 0
-306 9 0
-306 13 0
306 -9 -13 0
-307 9 0
-307 -306 0
307 -9 306 0
-308 13 0
-308 -306 0
308 -13 306 0
-309 -307 0
-309 -308 0
309 307 308 0
-310 -305 0
-310 -309 0
310 305 309 0
-311 -305 0
-311 -310 0
311 305 310 0
-312 -309 0
-312 -310 0
312 309 310 0
-313 -311 0
-313 -312 0
313 311 312 0
-314 33 0
-314 41 0
314 -33 -41 0
-315 -228 0
-315 -277 0
315 228 277 0
-316 -277 0
-316 -315 0
316 277 315 0
-317 -228 0
-317 -315 0
317 228 315 0
-318 -316 0
-318 -317 0
318 316 317 0
-319 314 0
-319 -318 0
319 -314 318 0
-320 314 0
-320 -319 0
320 -314 319 0
-321 -318 0
-321 -319 0
321 318 319 0
-322 -320 0
-322 -321 0
322 320 321 0
-323 -313 0
-323 -322 0
323 313 322 0
-324 -313 0
-324 -323 0
324 313 323 0
-325 -322 0
-325 -323 0
325 322 323 0
-326 -324 0
-326 -325 0
326 324 325 0
-327 2 0
-327 6 0
327 -2 -6 0
-328 2 0
-328 -327 0
328 -2 327 0
-329 6 0
-329 -327 0
329 -6 327 0
-330 -328 0
-330 -329 0
330 328 329 0
-331 10 0
-331 14 0
331 -10 -14 0
-332 10 0
-332 -331 0
332 -10 331 0
-333 14 0
-333 -331 0
333 -14 331 0
-334 -332 0
-334 -333 0
334 332 333 0
-335 -330 0
-335 -334 0
335 330 334 0
-336 -330 0
-336 -335 0
336 330 335 0
-337 -334 0
-337 -335 0
337 334 335 0
-338 -336 0
-338 -337 0
338 336 337 0
-339 34 0
-339 41 0
339 -34 -41 0
-340 -240 0
-340 -289 0
340 240 289 0
-341 -289 0
-341 -340 0
341 289 340 0
-342 -240 0
-342 -340 0
342 240 340 0
-343 -341 0
-343 -342 0
343 341 342 0
-344 339 0
-344 -343 0
344 -339 343 0
-345 339 0
-345 -344 0
345 -339 344 0
-346 -343 0
-346 -344 0
346 343 344 0
-347 -345 0
-347 -346 0
347 345 346 0
-348 -338 0
-348 -347 0
348 338 347 0
-349 -338 0
-349 -348 0
349 338 348 0
-350 -347 0
-350 -348 0
350 347 348 0
-351 -349 0
-351 -350 0
351 349 350 0
-352 326 0
-352 -351 0
352 -326 351 0
-353 301 0
-353 352 0
353 -301 -352 0
-354 -252 0
-354 353 0
354 252 -353 0
-355 -203 0
-355 354 0
355 203 -354 0
-356 -90 0
-356 355 0
356 90 -355 0
-357 32 0
-357 356 0
357 -32 -356 0
-358 32 0
-358 -357 0
358 -32 357 0
-359 356 0
-359 -357 0
359 -356 357 0
-360 -358 0
-360 -359 0
360 358 359 0
-361 -139 0
-361 355 0
361 139 -355 0
-362 31 0
-362 361 0
362 -31 -361 0
-363 31 0
-363 -362 0
363 -31 362 0
-364 361 0
-364 -362 0
364 -361 362 0
-365 -363 0
-365 -364 0
365 363 364 0
-366 -189 0
-366 355 0
366 189 -355 0
-367 30 0
-367 366 0
367 -30 -366 0
-368 30 0
-368 -367 0
368 -30 367 0
-369 366 0
-369 -367 0
369 -366 367 0
-370 -368 0
-370 -369 0
370 368 369 0
-371 -164 0
-371 355 0
371 164 -355 0
-372 29 0
-372 371 0
372 -29 -371 0
-373 29 0
-373 -372 0
373 -29 372 0
-374 371 0
-374 -372 0
374 -371 372 0
-375 -373 0
-375 -374 0
375 373 374 0
-376 -301 0
-376 352 0
376 301 -352 0
-377 252 0
-377 376 0
377 -252 -376 0
-378 -203 0
-378 377 0
378 203 -377 0
-379 -90 0
-379 378 0
379 90 -378 0
-380 28 0
-380 379 0
380 -28 -379 0
-381 28 0
-381 -380 0
381 -28 380 0
-382 379 0
-382 -380 0
382 -379 380 0
-383 -381 0
-383 -382 0
383 381 382 0
-384 -139 0
-384 378 0
384 139 -378 0
-385 27 0
-385 384 0
385 -27 -384 0
-386 27 0
-386 -385 0
386 -27 385 0
-387 384 0
-387 -385 0
387 -384 385 0
-388 -386 0
-388 -387 0
388 386 387 0
-389 -189 0
-389 378 0
389 189 -378 0
-390 26 0
-390 389 0
390 -26 -389 0
-391 26 0
-391 -390 0
391 -26 390 0
-392 389 0
-392 -390 0
392 -389 390 0
-393 -391 0
-393 -392 0
393 391 392 0
-394 -164 0
-394 378 0
394 164 -378 0
-395 25 0
-395 394 0
395 -25 -394 0
-396 25 0
-396 -395 0
396 -25 395 0
-397 394 0
-397 -395 0
397 -394 395 0
-398 -396 0
-398 -397 0
398 396 397 0
-399 -326 0
-399 351 0
399 326 -351 0
-400 301 0
-400 399 0
400 -301 -399 0
-401 -252 0
-401 400 0
401 252 -400 0
-402 -203 0
-402 401 0
402 203 -401 0
-403 -90 0
-403 402 0
403 90 -402 0
-404 24 0
-404 403 0
404 -24 -403 0
-405 24 0
-405 -404 0
405 -24 404 0
-406 403 0
-406 -404 0
406 -403 404 0
-407 -405 0
-407 -406 0
407 405 406 0
-408 -139 0
-408 402 0
408 139 -402 0
-409 23 0
-409 408 0
409 -23 -408 0
-410 23 0
-410 -409 0
410 -23 409 0
-411 408 0
-411 -409 0
411 -408 409 0
-412 -410 0
-412 -411 0
412 410 411 0
-413 -189 0
-413 402 0
413 189 -402 0
-414 22 0
-414 413 0
414 -22 -413 0
-415 22 0
-415 -414 0
415 -22 414 0
-416 413 0
-416 -414 0
416 -413 414 0
-417 -415 0
-417 -416 0
417 415 416 0
-418 -164 0
-418 402 0
418 164 -402 0
-419 21 0
-419 418 0
419 -21 -418 0
-420 21 0
-420 -419 0
420 -21 419 0
-421 418 0
-421 -419 0
421 -418 419 0
-422 -420 0
-422 -421 0
422 420 421 0
-423 -301 0
-423 399 0
423 301 -399 0
-424 252 0
-424 423 0
424 -252 -423 0
-425 -203 0
-425 424 0
425 203 -424 0
-426 -90 0
-426 425 0
426 90 -425 0
-427 20 0
-427 426 0
427 -20 -426 0
-428 20 0
-428 -427 0
428 -20 427 0
-429 426 0
-429 -427 0
429 -426 427 0
-430 -428 0
-430 -429 0
430 428 429 0
-431 -139 0
-431 425 0
431 139 -425 0
-432 19 0
-432 431 0
432 -19 -431 0
-433 19 0
-433 -432 0
433 -19 432 0
-434 431 0
-434 -432 0
434 -431 432 0
-435 -433 0
-435 -434 0
435 433 434 0
-436 -189 0
-436 425 0
436 189 -425 0
-437 18 0
-437 436 0
437 -18 -436 0
-438 18 0
-438 -437 0
438 -18 437 0
-439 436 0
-439 -437 0
439 -436 437 0
-440 -438 0
-440 -439 0
440 438 439 0
-441 -164 0
-441 425 0
441 164 -425 0
-442 17 0
-442 441 0
442 -17 -441 0
-443 17 0
-443 -442 0
443 -17 442 0
-444 441 0
-444 -442 0
444 -441 442 0
-445 -443 0
-445 -444 0
445 443 444 0
-446 252 0
-446 400 0
446 -252 -400 0
-447 252 0
-447 353 0
447 -252 -353 0
-448 326 0
-448 351 0
448 -326 -351 0
-449 301 0
-449 448 0
449 -301 -448 0
-450 -252 0
-450 449 0
450 252 -449 0
-451 -301 0
-451 448 0
451 301 -448 0
-452 252 0
-452 451 0
452 -252 -451 0
-453 -450 0
-453 -452 0
453 450 452 0
-454 -447 0
-454 453 0
454 447 -453 0
-455 -446 0
-455 454 0
455 446 -454 0
-456 -90 0
-456 194 0
456 90 -194 0
-457 -455 0
-457 456 0
457 455 -456 0
-458 -252 0
-458 457 0
458 252 -457 0
-459 16 0
-459 458 0
459 -16 -458 0
-460 16 0
-460 -459 0
460 -16 459 0
-461 458 0
-461 -459 0
461 -458 459 0
-462 -460 0
-462 -461 0
462 460 461 0
-463 -301 0
-463 457 0
463 301 -457 0
-464 15 0
-464 463 0
464 -15 -463 0
-465 15 0
-465 -464 0
465 -15 464 0
-466 463 0
-466 -464 0
466 -463 464 0
-467 -465 0
-467 -466 0
467 465 466 0
-468 -351 0
-468 457 0
468 351 -457 0
-469 14 0
-469 468 0
469 -14 -468 0
-470 14 0
-470 -469 0
470 -14 469 0
-471 468 0
-471 -469 0
471 -468 469 0
-472 -470 0
-472 -471 0
472 470 471 0
-473 -326 0
-473 457 0
473 326 -457 0
-474 13 0
-474 473 0
474 -13 -473 0
-475 13 0
-475 -474 0
475 -13 474 0
-476 473 0
-476 -474 0
476 -473 474 0
-477 -475 0
-477 -476 0
477 475 476 0
-478 -139 0
-478 193 0
478 139 -193 0
-479 90 0
-479 478 0
479 -90 -478 0
-480 -455 0
-480 479 0
480 455 -479 0
-481 -252 0
-481 480 0
481 252 -480 0
-482 12 0
-482 481 0
482 -12 -481 0
-483 12 0
-483 -482 0
483 -12 482 0
-484 481 0
-484 -482 0
484 -481 482 0
-485 -483 0
-485 -484 0
485 483 484 0
-486 -301 0
-486 480 0
486 301 -480 0
-487 11 0
-487 486 0
487 -11 -486 0
-488 11 0
-488 -487 0
488 -11 487 0
-489 486 0
-489 -487 0
489 -486 487 0
-490 -488 0
-490 -489 0
490 488 489 0
-491 -351 0
-491 480 0
491 351 -480 0
-492 10 0
-492 491 0
492 -10 -491 0
-493 10 0
-493 -492 0
493 -10 492 0
-494 491 0
-494 -492 0
494 -491 492 0
-495 -493 0
-495 -494 0
495 493 494 0
-496 -326 0
-496 480 0
496 326 -480 0
-497 9 0
-497 496 0
497 -9 -496 0
-498 9 0
-498 -497 0
498 -9 497 0
-499 496 0
-499 -497 0
499 -496 497 0
-500 -498 0
-500 -499 0
500 498 499 0
-501 -90 0
-501 191 0
501 90 -191 0
-502 -455 0
-502 501 0
502 455 -501 0
-503 -252 0
-503 502 0
503 252 -502 0
-504 8 0
-504 503 0
504 -8 -503 0
-505 8 0
-505 -504 0
505 -8 504 0
-506 503 0
-506 -504 0
506 -503 504 0
-507 -505 0
-507 -506 0
507 505 506 0
-508 -301 0
-508 502 0
508 301 -502 0
-509 7 0
-509 508 0
509 -7 -508 0
-510 7 0
-510 -509 0
510 -7 509 0
-511 508 0
-511 -509 0
511 -508 509 0
-512 -510 0
-512 -511 0
512 510 511 0
-513 -351 0
-513 502 0
513 351 -502 0
-514 6 0
-514 513 0
514 -6 -513 0
-515 6 0
-515 -514 0
515 -6 514 0
-516 513 0
-516 -514 0
516 -513 514 0
-517 -515 0
-517 -516 0
517 515 516 0
-518 -326 0
-518 502 0
518 326 -502 0
-519 5 0
-519 518 0
519 -5 -518 0
-520 5 0
-520 -519 0
520 -5 519 0
-521 518 0
-521 -519 0
521 -518 519 0
-522 -520 0
-522 -521 0
522 520 521 0
-523 -139 0
-523 190 0
523 139 -190 0
-524 90 0
-524 523 0
524 -90 -523 0
-525 -455 0
-525 524 0
525 455 -524 0
-526 -252 0
-526 525 0
526 252 -525 0
-527 4 0
-527 526 0
527 -4 -526 0
-528 4 0
-528 -527 0
528 -4 527 0
-529 526 0
-529 -527 0
529 -526 527 0
-530 -528 0
-530 -529 0
530 528 529 0
-531 -301 0
-531 525 0
531 301 -525 0
-532 3 0
-532 531 0
532 -3 -531 0
-533 3 0
-533 -532 0
533 -3 532 0
-534 531 0
-534 -532 0
534 -531 532 0
-535 -533 0
-535 -534 0
535 533 534 0
-536 -326 0
-536 525 0
536 326 -525 0
-537 1 0
-537 536 0
537 -1 -536 0
-538 1 0
-538 -537 0
538 -1 537 0
-539 536 0
-539 -537 0
539 -536 537 0
-540 -538 0
-540 -539 0
540 538 539 0
-541 -351 0
-541 525 0
541 351 -525 0
-542 2 0
-542 541 0
542 -2 -541 0
-543 2 0
-543 -542 0
543 -2 542 0
-544 541 0
-544 -542 0
544 -541 542 0
-545 -543 0
-545 -544 0
545 543 544 0
-546 540 0
-546 545 0
546 -540 -545 0
-547 535 0
-547 546 0
547 -535 -546 0
-548 530 0
-548 547 0
548 -530 -547 0
-549 522 0
-549 548 0
549 -522 -548 0
-550 517 0
-550 549 0
550 -517 -549 0
-551 512 0
-551 550 0
551 -512 -550 0
-552 507 0
-552 551 0
552 -507 -551 0
-553 500 0
-553 552 0
553 -500 -552 0
-554 495 0
-554 553 0
554 -495 -553 0
-555 490 0
-555 554 0
555 -490 -554 0
-556 485 0
-556 555 0
556 -485 -555 0
-557 477 0
-557 556 0
557 -477 -556 0
-558 472 0
-558 557 0
558 -472 -557 0
-559 467 0
-559 558 0
559 -467 -558 0
-560 462 0
-560 559 0
560 -462 -559 0
-561 445 0
-561 560 0
561 -445 -560 0
-562 440 0
-562 561 0
562 -440 -561 0
-563 435 0
-563 562 0
563 -435 -562 0
-564 430 0
-564 563 0
564 -430 -563 0
-565 422 0
-565 564 0
565 -422 -564 0
-566 417 0
-566 565 0
566 -417 -565 0
-567 412 0
-567 566 0
567 -412 -566 0
-568 407 0
-568 567 0
568 -407 -567 0
-569 398 0
-569 568 0
569 -398 -568 0
-570 393 0
-570 569 0
570 -393 -569 0
-571 388 0
-571 570 0
571 -388 -570 0
-572 383 0
-572 571 0
572 -383 -571 0
-573 375 0
-573 572 0
573 -375 -572 0
-574 370 0
-574 573 0
574 -370 -573 0
-575 365 0
-575 574 0
575 -365 -574 0
-576 360 0
-576 575 0
576 -360 -575 0
-576 0
